# Solution for model erosion_srl_ilp
# Objective value = 1.8829303289061965e+00
Z_420_0_0 0
Z_420_0_1 0
Z_420_0_2 1
Z_420_0_3 0
Z_420_0_4 0
Z_256_0_0 0
Z_256_0_1 0
Z_256_0_2 0
Z_256_0_3 0
Z_256_0_4 1
Z_258_0_0 0
Z_258_0_1 0
Z_258_0_2 1
Z_258_0_3 0
Z_258_0_4 0
